50

97 27 291
97 22 298
90 4 273
89 3 297
89 6 275
89 8 270
85 11 280
83 1 288
82 13 275
81 21 274
77 8 232
76 19 241
76 22 290
75 10 283
71 11 225
71 15 243
68 21 275
68 17 245
66 4 280
63 15 263
63 18 214
63 9 260
62 19 249
61 1 285
61 7 295
59 1 237
58 7 245
54 16 240
53 9 217
50 8 295
50 5 282
50 7 268
46 11 250
43 7 299
40 12 150
36 3 291
36 2 116
33 4 148
32 7 285
31 1 183
31 8 120
31 7 297
28 9 167
27 4 288
27 4 263
26 8 133
26 7 205
24 4 114
23 5 168
22 3 261
